119 73 142 18 116 36 118 99 60 62 90 89 68 182 193 163 20 72 3 92 164 23 146 5 64 169 161 125 167 31 93 138 104 85 14 121 115 8 79 178 26 155 143 159 7 129 87 106 45 134 10 96 199 189 2 114 69 48 16 65 136 105 25 34 192 28 100 80 187 43 144 165 15 17 186 133 180 102 74 131 22 109 197 30 174 40 135 61 91 42 21 152 168 97 148 126 82 94 183 156 46 24 132 162 0 179 49 122 67 140 53 95 194 66 84 113 59 123 54 117 77 139 111 184 86 4 130 120 37 110 128 58 103 141 55 11 19 181 27 191 50 195 39 81 70 83 154 56 171 6 160 185 41 108 124 145 170 75 9 1 47 166 172 196 198 173 176 29 147 63 32 35 88 127 76 38 52 149 150 157 175 107 98 51 137 78 190 57 71 177 101 112 153 151 44 188 13 33 12 158